ObjectiveValue = 4691;
flow=[(5,0,2)(5,1,0)(5,2,7)(5,4,0)(5,6,30)(5,8,0)(5,9,0)(5,10,0)(5,12,1)(6,1,3)(6,2,5)(6,7,5)(6,8,1)(6,9,3)(6,10,4)(6,11,33)(8,5,4)(8,6,1)(8,11,1)(10,11,6)(10,12,1)(11,6,34)(12,2,4)(12,6,19)(12,11,11)];
